n_res = 4;
rcap = [24, 20, 114, 94];
rtype = [1, 1, 2, 2];
n_tasks = 20;
modes = [ {1, 2, 3}, {4, 5, 6}, {7, 8, 9}, {10, 11, 12}, {13, 14, 15}, {16, 17, 18}, {19, 20, 21}, {22, 23, 24}, {25, 26, 27}, {28, 29, 30}, {31, 32, 33}, {34, 35, 36}, {37, 38, 39}, {40, 41, 42}, {43, 44, 45}, {46, 47, 48}, {49, 50, 51}, {52, 53, 54}, {55, 56, 57}, {58, 59, 60} ];
succ = [ {8, 20}, {4, 5, 10}, {6, 7, 19}, {9, 13, 14}, {9, 13, 18}, {8, 16, 17}, {8, 17}, {18}, {15}, {11, 13}, {12, 17}, {14, 15}, {16}, {19, 20}, {16, 19}, {20}, {18}, {}, {}, {} ];
n_opt = 60;
dur = [1, 3, 6, 5, 8, 10, 1, 1, 10, 2, 2, 7, 6, 8, 10, 3, 8, 10, 1, 6, 9, 1, 2, 3, 2, 2, 2, 2, 3, 4, 1, 4, 8, 5, 7, 9, 2, 6, 10, 1, 5, 7, 1, 4, 4, 1, 1, 4, 3, 4, 5, 4, 5, 7, 3, 4, 10, 5, 5, 7];
rreq = [|  3,  3,  2,  8,  5,  4,  8,  7,  6, 10, 10, 10,  1,  1,  1,  8,  7,  6, 10,  6,  3, 10, 10, 10,  4,  4,  4, 10,  6,  5,  6,  6,  4,  9,  7,  6,  8,  4,  3,  8,  7,  6,  7,  7,  6,  7,  7,  7,  7,  6,  6,  7,  7,  6,  8,  7,  6, 10, 10,  9
        |  2,  1,  1,  6,  5,  5,  4,  4,  4,  8,  7,  2,  8,  7,  6,  9,  6,  5,  8,  8,  6,  8,  7,  6,  5,  2,  5,  8,  8,  8,  5,  4,  4,  7,  7,  7,  4,  3,  2,  2,  2,  2, 10,  9, 10,  8,  8,  5,  5,  4,  2,  6,  5,  4,  7,  7,  6,  7,  7,  6
        |  0,  0,  0,  3,  0,  0,  0,  6,  0,  0,  4,  4,  9,  0,  0,  6,  6,  6,  0,  0,  0,  0,  5,  5,  0,  0,  6,  7,  7,  0,  9,  9,  0,  8,  6,  4,  8,  7,  5,  6,  0,  0,  2,  0,  2,  5,  0,  0,  9,  8,  7,  0,  6,  0,  0, 10,  6,  0,  5,  3
        |  6,  5,  4,  0,  7,  4, 10,  0, 10,  4,  0,  0,  0,  5,  4,  0,  0,  0, 10,  9,  8,  3,  0,  0,  3,  4,  0,  0,  0,  4,  0,  0,  5,  0,  0,  0,  0,  0,  0,  0,  2,  2,  0,  8,  0,  0,  8,  6,  0,  0,  0,  8,  0,  4,  3,  0,  0,  7,  0,  0 |];
